589,121
937,489
477,806
453,332
711,406
672,347
646,358
951,406
912,-48
552,7
1041,46
727,264
699,349
561,406
668,380
207,331
787,352
875,265
488,672
518,726
1023,295
681,616
660,427
937,323
912,860
501,406
746,-8
977,702
823,360
622,415
681,316
611,-38
681,706
326,462
339,295
342,160
596,433
